NAME: my_tsp_file
TYPE: TSP
DIMENSIONS: 5
EDGE_WEIGHT_TYPE: EUC_2D
NODE_COORD_SECTION
Mykolaiv 46.9661 32.0032
Konotop 51.2409 33.2051
Mariupol 47.0971 37.5434
Ivano-Frankivsk 48.9201 24.7089
Chernihiv 51.4982 31.2893
EOF
